c Standarized MaxSat Instance
c{
c "sha1sum": "c57ffdd2c17c9e074e16f0957fd34cb0230ddab4",
c "nvars": 376,
c "ncls": 1862,
c "nhards": 0,
c "nhard_len_stats":
c    { "min": 0, "max": 0, "ave": 0.00,
c      "stddev": 0.00 },
c "nsofts": 1862,
c "nsoft_len_stats":
c    { "min": 1, "max": 3, "ave": 2.77,
c      "stddev": 0.49 },
c "nsoft_wts": 2,
c "soft_wt_stats":
c    { "min": 1, "max": 56, "ave": 54.38,
c      "stddev": 9.31 }
c}
c------------------------------------------------------------
c This instance encodes a supposedly trivial MaxSAT formula.
c The hard part of the formula encodes a cardinality constraint:
c     x1 + ... + x55 <= 24
c Cardinality encoding used is 'tot'.
c The soft part prefers all the variables to be set to true:
c     x1 = 1, ..., x55 = 1
c As a result, the optimum cost for this formula is 31.
c
p wcnf 376 1862 101248
1 1 0
1 2 0
1 3 0
1 4 0
1 5 0
1 6 0
1 7 0
1 8 0
1 9 0
1 10 0
1 11 0
1 12 0
1 13 0
1 14 0
1 15 0
1 16 0
1 17 0
1 18 0
1 19 0
1 20 0
1 21 0
1 22 0
1 23 0
1 24 0
1 25 0
1 26 0
1 27 0
1 28 0
1 29 0
1 30 0
1 31 0
1 32 0
1 33 0
1 34 0
1 35 0
1 36 0
1 37 0
1 38 0
1 39 0
1 40 0
1 41 0
1 42 0
1 43 0
1 44 0
1 45 0
1 46 0
1 47 0
1 48 0
1 49 0
1 50 0
1 51 0
1 52 0
1 53 0
1 54 0
1 55 0
56 -139 56 0
56 -140 57 0
56 -141 58 0
56 -142 59 0
56 -143 60 0
56 -144 61 0
56 -145 62 0
56 -146 63 0
56 -147 64 0
56 -148 65 0
56 -149 66 0
56 -150 67 0
56 -151 68 0
56 -152 69 0
56 -153 70 0
56 -154 71 0
56 -155 72 0
56 -156 73 0
56 -157 74 0
56 -158 75 0
56 -159 76 0
56 -160 77 0
56 -161 78 0
56 -162 79 0
56 -163 80 0
56 -164 81 0
56 -165 82 0
56 -111 56 0
56 -112 57 0
56 -113 58 0
56 -114 59 0
56 -115 60 0
56 -116 61 0
56 -117 62 0
56 -118 63 0
56 -119 64 0
56 -120 65 0
56 -121 66 0
56 -122 67 0
56 -123 68 0
56 -124 69 0
56 -125 70 0
56 -126 71 0
56 -127 72 0
56 -128 73 0
56 -129 74 0
56 -130 75 0
56 -131 76 0
56 -132 77 0
56 -133 78 0
56 -134 79 0
56 -135 80 0
56 -136 81 0
56 -137 82 0
56 -138 83 0
56 -111 -139 57 0
56 -111 -140 58 0
56 -111 -141 59 0
56 -111 -142 60 0
56 -111 -143 61 0
56 -111 -144 62 0
56 -111 -145 63 0
56 -111 -146 64 0
56 -111 -147 65 0
56 -111 -148 66 0
56 -111 -149 67 0
56 -111 -150 68 0
56 -111 -151 69 0
56 -111 -152 70 0
56 -111 -153 71 0
56 -111 -154 72 0
56 -111 -155 73 0
56 -111 -156 74 0
56 -111 -157 75 0
56 -111 -158 76 0
56 -111 -159 77 0
56 -111 -160 78 0
56 -111 -161 79 0
56 -111 -162 80 0
56 -111 -163 81 0
56 -111 -164 82 0
56 -111 -165 83 0
56 -112 -139 58 0
56 -112 -140 59 0
56 -112 -141 60 0
56 -112 -142 61 0
56 -112 -143 62 0
56 -112 -144 63 0
56 -112 -145 64 0
56 -112 -146 65 0
56 -112 -147 66 0
56 -112 -148 67 0
56 -112 -149 68 0
56 -112 -150 69 0
56 -112 -151 70 0
56 -112 -152 71 0
56 -112 -153 72 0
56 -112 -154 73 0
56 -112 -155 74 0
56 -112 -156 75 0
56 -112 -157 76 0
56 -112 -158 77 0
56 -112 -159 78 0
56 -112 -160 79 0
56 -112 -161 80 0
56 -112 -162 81 0
56 -112 -163 82 0
56 -112 -164 83 0
56 -112 -165 84 0
56 -113 -139 59 0
56 -113 -140 60 0
56 -113 -141 61 0
56 -113 -142 62 0
56 -113 -143 63 0
56 -113 -144 64 0
56 -113 -145 65 0
56 -113 -146 66 0
56 -113 -147 67 0
56 -113 -148 68 0
56 -113 -149 69 0
56 -113 -150 70 0
56 -113 -151 71 0
56 -113 -152 72 0
56 -113 -153 73 0
56 -113 -154 74 0
56 -113 -155 75 0
56 -113 -156 76 0
56 -113 -157 77 0
56 -113 -158 78 0
56 -113 -159 79 0
56 -113 -160 80 0
56 -113 -161 81 0
56 -113 -162 82 0
56 -113 -163 83 0
56 -113 -164 84 0
56 -113 -165 85 0
56 -114 -139 60 0
56 -114 -140 61 0
56 -114 -141 62 0
56 -114 -142 63 0
56 -114 -143 64 0
56 -114 -144 65 0
56 -114 -145 66 0
56 -114 -146 67 0
56 -114 -147 68 0
56 -114 -148 69 0
56 -114 -149 70 0
56 -114 -150 71 0
56 -114 -151 72 0
56 -114 -152 73 0
56 -114 -153 74 0
56 -114 -154 75 0
56 -114 -155 76 0
56 -114 -156 77 0
56 -114 -157 78 0
56 -114 -158 79 0
56 -114 -159 80 0
56 -114 -160 81 0
56 -114 -161 82 0
56 -114 -162 83 0
56 -114 -163 84 0
56 -114 -164 85 0
56 -114 -165 86 0
56 -115 -139 61 0
56 -115 -140 62 0
56 -115 -141 63 0
56 -115 -142 64 0
56 -115 -143 65 0
56 -115 -144 66 0
56 -115 -145 67 0
56 -115 -146 68 0
56 -115 -147 69 0
56 -115 -148 70 0
56 -115 -149 71 0
56 -115 -150 72 0
56 -115 -151 73 0
56 -115 -152 74 0
56 -115 -153 75 0
56 -115 -154 76 0
56 -115 -155 77 0
56 -115 -156 78 0
56 -115 -157 79 0
56 -115 -158 80 0
56 -115 -159 81 0
56 -115 -160 82 0
56 -115 -161 83 0
56 -115 -162 84 0
56 -115 -163 85 0
56 -115 -164 86 0
56 -115 -165 87 0
56 -116 -139 62 0
56 -116 -140 63 0
56 -116 -141 64 0
56 -116 -142 65 0
56 -116 -143 66 0
56 -116 -144 67 0
56 -116 -145 68 0
56 -116 -146 69 0
56 -116 -147 70 0
56 -116 -148 71 0
56 -116 -149 72 0
56 -116 -150 73 0
56 -116 -151 74 0
56 -116 -152 75 0
56 -116 -153 76 0
56 -116 -154 77 0
56 -116 -155 78 0
56 -116 -156 79 0
56 -116 -157 80 0
56 -116 -158 81 0
56 -116 -159 82 0
56 -116 -160 83 0
56 -116 -161 84 0
56 -116 -162 85 0
56 -116 -163 86 0
56 -116 -164 87 0
56 -116 -165 88 0
56 -117 -139 63 0
56 -117 -140 64 0
56 -117 -141 65 0
56 -117 -142 66 0
56 -117 -143 67 0
56 -117 -144 68 0
56 -117 -145 69 0
56 -117 -146 70 0
56 -117 -147 71 0
56 -117 -148 72 0
56 -117 -149 73 0
56 -117 -150 74 0
56 -117 -151 75 0
56 -117 -152 76 0
56 -117 -153 77 0
56 -117 -154 78 0
56 -117 -155 79 0
56 -117 -156 80 0
56 -117 -157 81 0
56 -117 -158 82 0
56 -117 -159 83 0
56 -117 -160 84 0
56 -117 -161 85 0
56 -117 -162 86 0
56 -117 -163 87 0
56 -117 -164 88 0
56 -117 -165 89 0
56 -118 -139 64 0
56 -118 -140 65 0
56 -118 -141 66 0
56 -118 -142 67 0
56 -118 -143 68 0
56 -118 -144 69 0
56 -118 -145 70 0
56 -118 -146 71 0
56 -118 -147 72 0
56 -118 -148 73 0
56 -118 -149 74 0
56 -118 -150 75 0
56 -118 -151 76 0
56 -118 -152 77 0
56 -118 -153 78 0
56 -118 -154 79 0
56 -118 -155 80 0
56 -118 -156 81 0
56 -118 -157 82 0
56 -118 -158 83 0
56 -118 -159 84 0
56 -118 -160 85 0
56 -118 -161 86 0
56 -118 -162 87 0
56 -118 -163 88 0
56 -118 -164 89 0
56 -118 -165 90 0
56 -119 -139 65 0
56 -119 -140 66 0
56 -119 -141 67 0
56 -119 -142 68 0
56 -119 -143 69 0
56 -119 -144 70 0
56 -119 -145 71 0
56 -119 -146 72 0
56 -119 -147 73 0
56 -119 -148 74 0
56 -119 -149 75 0
56 -119 -150 76 0
56 -119 -151 77 0
56 -119 -152 78 0
56 -119 -153 79 0
56 -119 -154 80 0
56 -119 -155 81 0
56 -119 -156 82 0
56 -119 -157 83 0
56 -119 -158 84 0
56 -119 -159 85 0
56 -119 -160 86 0
56 -119 -161 87 0
56 -119 -162 88 0
56 -119 -163 89 0
56 -119 -164 90 0
56 -119 -165 91 0
56 -120 -139 66 0
56 -120 -140 67 0
56 -120 -141 68 0
56 -120 -142 69 0
56 -120 -143 70 0
56 -120 -144 71 0
56 -120 -145 72 0
56 -120 -146 73 0
56 -120 -147 74 0
56 -120 -148 75 0
56 -120 -149 76 0
56 -120 -150 77 0
56 -120 -151 78 0
56 -120 -152 79 0
56 -120 -153 80 0
56 -120 -154 81 0
56 -120 -155 82 0
56 -120 -156 83 0
56 -120 -157 84 0
56 -120 -158 85 0
56 -120 -159 86 0
56 -120 -160 87 0
56 -120 -161 88 0
56 -120 -162 89 0
56 -120 -163 90 0
56 -120 -164 91 0
56 -120 -165 92 0
56 -121 -139 67 0
56 -121 -140 68 0
56 -121 -141 69 0
56 -121 -142 70 0
56 -121 -143 71 0
56 -121 -144 72 0
56 -121 -145 73 0
56 -121 -146 74 0
56 -121 -147 75 0
56 -121 -148 76 0
56 -121 -149 77 0
56 -121 -150 78 0
56 -121 -151 79 0
56 -121 -152 80 0
56 -121 -153 81 0
56 -121 -154 82 0
56 -121 -155 83 0
56 -121 -156 84 0
56 -121 -157 85 0
56 -121 -158 86 0
56 -121 -159 87 0
56 -121 -160 88 0
56 -121 -161 89 0
56 -121 -162 90 0
56 -121 -163 91 0
56 -121 -164 92 0
56 -121 -165 93 0
56 -122 -139 68 0
56 -122 -140 69 0
56 -122 -141 70 0
56 -122 -142 71 0
56 -122 -143 72 0
56 -122 -144 73 0
56 -122 -145 74 0
56 -122 -146 75 0
56 -122 -147 76 0
56 -122 -148 77 0
56 -122 -149 78 0
56 -122 -150 79 0
56 -122 -151 80 0
56 -122 -152 81 0
56 -122 -153 82 0
56 -122 -154 83 0
56 -122 -155 84 0
56 -122 -156 85 0
56 -122 -157 86 0
56 -122 -158 87 0
56 -122 -159 88 0
56 -122 -160 89 0
56 -122 -161 90 0
56 -122 -162 91 0
56 -122 -163 92 0
56 -122 -164 93 0
56 -122 -165 94 0
56 -123 -139 69 0
56 -123 -140 70 0
56 -123 -141 71 0
56 -123 -142 72 0
56 -123 -143 73 0
56 -123 -144 74 0
56 -123 -145 75 0
56 -123 -146 76 0
56 -123 -147 77 0
56 -123 -148 78 0
56 -123 -149 79 0
56 -123 -150 80 0
56 -123 -151 81 0
56 -123 -152 82 0
56 -123 -153 83 0
56 -123 -154 84 0
56 -123 -155 85 0
56 -123 -156 86 0
56 -123 -157 87 0
56 -123 -158 88 0
56 -123 -159 89 0
56 -123 -160 90 0
56 -123 -161 91 0
56 -123 -162 92 0
56 -123 -163 93 0
56 -123 -164 94 0
56 -123 -165 95 0
56 -124 -139 70 0
56 -124 -140 71 0
56 -124 -141 72 0
56 -124 -142 73 0
56 -124 -143 74 0
56 -124 -144 75 0
56 -124 -145 76 0
56 -124 -146 77 0
56 -124 -147 78 0
56 -124 -148 79 0
56 -124 -149 80 0
56 -124 -150 81 0
56 -124 -151 82 0
56 -124 -152 83 0
56 -124 -153 84 0
56 -124 -154 85 0
56 -124 -155 86 0
56 -124 -156 87 0
56 -124 -157 88 0
56 -124 -158 89 0
56 -124 -159 90 0
56 -124 -160 91 0
56 -124 -161 92 0
56 -124 -162 93 0
56 -124 -163 94 0
56 -124 -164 95 0
56 -124 -165 96 0
56 -125 -139 71 0
56 -125 -140 72 0
56 -125 -141 73 0
56 -125 -142 74 0
56 -125 -143 75 0
56 -125 -144 76 0
56 -125 -145 77 0
56 -125 -146 78 0
56 -125 -147 79 0
56 -125 -148 80 0
56 -125 -149 81 0
56 -125 -150 82 0
56 -125 -151 83 0
56 -125 -152 84 0
56 -125 -153 85 0
56 -125 -154 86 0
56 -125 -155 87 0
56 -125 -156 88 0
56 -125 -157 89 0
56 -125 -158 90 0
56 -125 -159 91 0
56 -125 -160 92 0
56 -125 -161 93 0
56 -125 -162 94 0
56 -125 -163 95 0
56 -125 -164 96 0
56 -125 -165 97 0
56 -126 -139 72 0
56 -126 -140 73 0
56 -126 -141 74 0
56 -126 -142 75 0
56 -126 -143 76 0
56 -126 -144 77 0
56 -126 -145 78 0
56 -126 -146 79 0
56 -126 -147 80 0
56 -126 -148 81 0
56 -126 -149 82 0
56 -126 -150 83 0
56 -126 -151 84 0
56 -126 -152 85 0
56 -126 -153 86 0
56 -126 -154 87 0
56 -126 -155 88 0
56 -126 -156 89 0
56 -126 -157 90 0
56 -126 -158 91 0
56 -126 -159 92 0
56 -126 -160 93 0
56 -126 -161 94 0
56 -126 -162 95 0
56 -126 -163 96 0
56 -126 -164 97 0
56 -126 -165 98 0
56 -127 -139 73 0
56 -127 -140 74 0
56 -127 -141 75 0
56 -127 -142 76 0
56 -127 -143 77 0
56 -127 -144 78 0
56 -127 -145 79 0
56 -127 -146 80 0
56 -127 -147 81 0
56 -127 -148 82 0
56 -127 -149 83 0
56 -127 -150 84 0
56 -127 -151 85 0
56 -127 -152 86 0
56 -127 -153 87 0
56 -127 -154 88 0
56 -127 -155 89 0
56 -127 -156 90 0
56 -127 -157 91 0
56 -127 -158 92 0
56 -127 -159 93 0
56 -127 -160 94 0
56 -127 -161 95 0
56 -127 -162 96 0
56 -127 -163 97 0
56 -127 -164 98 0
56 -127 -165 99 0
56 -128 -139 74 0
56 -128 -140 75 0
56 -128 -141 76 0
56 -128 -142 77 0
56 -128 -143 78 0
56 -128 -144 79 0
56 -128 -145 80 0
56 -128 -146 81 0
56 -128 -147 82 0
56 -128 -148 83 0
56 -128 -149 84 0
56 -128 -150 85 0
56 -128 -151 86 0
56 -128 -152 87 0
56 -128 -153 88 0
56 -128 -154 89 0
56 -128 -155 90 0
56 -128 -156 91 0
56 -128 -157 92 0
56 -128 -158 93 0
56 -128 -159 94 0
56 -128 -160 95 0
56 -128 -161 96 0
56 -128 -162 97 0
56 -128 -163 98 0
56 -128 -164 99 0
56 -128 -165 100 0
56 -129 -139 75 0
56 -129 -140 76 0
56 -129 -141 77 0
56 -129 -142 78 0
56 -129 -143 79 0
56 -129 -144 80 0
56 -129 -145 81 0
56 -129 -146 82 0
56 -129 -147 83 0
56 -129 -148 84 0
56 -129 -149 85 0
56 -129 -150 86 0
56 -129 -151 87 0
56 -129 -152 88 0
56 -129 -153 89 0
56 -129 -154 90 0
56 -129 -155 91 0
56 -129 -156 92 0
56 -129 -157 93 0
56 -129 -158 94 0
56 -129 -159 95 0
56 -129 -160 96 0
56 -129 -161 97 0
56 -129 -162 98 0
56 -129 -163 99 0
56 -129 -164 100 0
56 -129 -165 101 0
56 -130 -139 76 0
56 -130 -140 77 0
56 -130 -141 78 0
56 -130 -142 79 0
56 -130 -143 80 0
56 -130 -144 81 0
56 -130 -145 82 0
56 -130 -146 83 0
56 -130 -147 84 0
56 -130 -148 85 0
56 -130 -149 86 0
56 -130 -150 87 0
56 -130 -151 88 0
56 -130 -152 89 0
56 -130 -153 90 0
56 -130 -154 91 0
56 -130 -155 92 0
56 -130 -156 93 0
56 -130 -157 94 0
56 -130 -158 95 0
56 -130 -159 96 0
56 -130 -160 97 0
56 -130 -161 98 0
56 -130 -162 99 0
56 -130 -163 100 0
56 -130 -164 101 0
56 -130 -165 102 0
56 -131 -139 77 0
56 -131 -140 78 0
56 -131 -141 79 0
56 -131 -142 80 0
56 -131 -143 81 0
56 -131 -144 82 0
56 -131 -145 83 0
56 -131 -146 84 0
56 -131 -147 85 0
56 -131 -148 86 0
56 -131 -149 87 0
56 -131 -150 88 0
56 -131 -151 89 0
56 -131 -152 90 0
56 -131 -153 91 0
56 -131 -154 92 0
56 -131 -155 93 0
56 -131 -156 94 0
56 -131 -157 95 0
56 -131 -158 96 0
56 -131 -159 97 0
56 -131 -160 98 0
56 -131 -161 99 0
56 -131 -162 100 0
56 -131 -163 101 0
56 -131 -164 102 0
56 -131 -165 103 0
56 -132 -139 78 0
56 -132 -140 79 0
56 -132 -141 80 0
56 -132 -142 81 0
56 -132 -143 82 0
56 -132 -144 83 0
56 -132 -145 84 0
56 -132 -146 85 0
56 -132 -147 86 0
56 -132 -148 87 0
56 -132 -149 88 0
56 -132 -150 89 0
56 -132 -151 90 0
56 -132 -152 91 0
56 -132 -153 92 0
56 -132 -154 93 0
56 -132 -155 94 0
56 -132 -156 95 0
56 -132 -157 96 0
56 -132 -158 97 0
56 -132 -159 98 0
56 -132 -160 99 0
56 -132 -161 100 0
56 -132 -162 101 0
56 -132 -163 102 0
56 -132 -164 103 0
56 -132 -165 104 0
56 -133 -139 79 0
56 -133 -140 80 0
56 -133 -141 81 0
56 -133 -142 82 0
56 -133 -143 83 0
56 -133 -144 84 0
56 -133 -145 85 0
56 -133 -146 86 0
56 -133 -147 87 0
56 -133 -148 88 0
56 -133 -149 89 0
56 -133 -150 90 0
56 -133 -151 91 0
56 -133 -152 92 0
56 -133 -153 93 0
56 -133 -154 94 0
56 -133 -155 95 0
56 -133 -156 96 0
56 -133 -157 97 0
56 -133 -158 98 0
56 -133 -159 99 0
56 -133 -160 100 0
56 -133 -161 101 0
56 -133 -162 102 0
56 -133 -163 103 0
56 -133 -164 104 0
56 -133 -165 105 0
56 -134 -139 80 0
56 -134 -140 81 0
56 -134 -141 82 0
56 -134 -142 83 0
56 -134 -143 84 0
56 -134 -144 85 0
56 -134 -145 86 0
56 -134 -146 87 0
56 -134 -147 88 0
56 -134 -148 89 0
56 -134 -149 90 0
56 -134 -150 91 0
56 -134 -151 92 0
56 -134 -152 93 0
56 -134 -153 94 0
56 -134 -154 95 0
56 -134 -155 96 0
56 -134 -156 97 0
56 -134 -157 98 0
56 -134 -158 99 0
56 -134 -159 100 0
56 -134 -160 101 0
56 -134 -161 102 0
56 -134 -162 103 0
56 -134 -163 104 0
56 -134 -164 105 0
56 -134 -165 106 0
56 -135 -139 81 0
56 -135 -140 82 0
56 -135 -141 83 0
56 -135 -142 84 0
56 -135 -143 85 0
56 -135 -144 86 0
56 -135 -145 87 0
56 -135 -146 88 0
56 -135 -147 89 0
56 -135 -148 90 0
56 -135 -149 91 0
56 -135 -150 92 0
56 -135 -151 93 0
56 -135 -152 94 0
56 -135 -153 95 0
56 -135 -154 96 0
56 -135 -155 97 0
56 -135 -156 98 0
56 -135 -157 99 0
56 -135 -158 100 0
56 -135 -159 101 0
56 -135 -160 102 0
56 -135 -161 103 0
56 -135 -162 104 0
56 -135 -163 105 0
56 -135 -164 106 0
56 -135 -165 107 0
56 -136 -139 82 0
56 -136 -140 83 0
56 -136 -141 84 0
56 -136 -142 85 0
56 -136 -143 86 0
56 -136 -144 87 0
56 -136 -145 88 0
56 -136 -146 89 0
56 -136 -147 90 0
56 -136 -148 91 0
56 -136 -149 92 0
56 -136 -150 93 0
56 -136 -151 94 0
56 -136 -152 95 0
56 -136 -153 96 0
56 -136 -154 97 0
56 -136 -155 98 0
56 -136 -156 99 0
56 -136 -157 100 0
56 -136 -158 101 0
56 -136 -159 102 0
56 -136 -160 103 0
56 -136 -161 104 0
56 -136 -162 105 0
56 -136 -163 106 0
56 -136 -164 107 0
56 -136 -165 108 0
56 -137 -139 83 0
56 -137 -140 84 0
56 -137 -141 85 0
56 -137 -142 86 0
56 -137 -143 87 0
56 -137 -144 88 0
56 -137 -145 89 0
56 -137 -146 90 0
56 -137 -147 91 0
56 -137 -148 92 0
56 -137 -149 93 0
56 -137 -150 94 0
56 -137 -151 95 0
56 -137 -152 96 0
56 -137 -153 97 0
56 -137 -154 98 0
56 -137 -155 99 0
56 -137 -156 100 0
56 -137 -157 101 0
56 -137 -158 102 0
56 -137 -159 103 0
56 -137 -160 104 0
56 -137 -161 105 0
56 -137 -162 106 0
56 -137 -163 107 0
56 -137 -164 108 0
56 -137 -165 109 0
56 -138 -139 84 0
56 -138 -140 85 0
56 -138 -141 86 0
56 -138 -142 87 0
56 -138 -143 88 0
56 -138 -144 89 0
56 -138 -145 90 0
56 -138 -146 91 0
56 -138 -147 92 0
56 -138 -148 93 0
56 -138 -149 94 0
56 -138 -150 95 0
56 -138 -151 96 0
56 -138 -152 97 0
56 -138 -153 98 0
56 -138 -154 99 0
56 -138 -155 100 0
56 -138 -156 101 0
56 -138 -157 102 0
56 -138 -158 103 0
56 -138 -159 104 0
56 -138 -160 105 0
56 -138 -161 106 0
56 -138 -162 107 0
56 -138 -163 108 0
56 -138 -164 109 0
56 -138 -165 110 0
56 -180 139 0
56 -181 140 0
56 -182 141 0
56 -183 142 0
56 -184 143 0
56 -185 144 0
56 -186 145 0
56 -187 146 0
56 -188 147 0
56 -189 148 0
56 -190 149 0
56 -191 150 0
56 -192 151 0
56 -166 139 0
56 -167 140 0
56 -168 141 0
56 -169 142 0
56 -170 143 0
56 -171 144 0
56 -172 145 0
56 -173 146 0
56 -174 147 0
56 -175 148 0
56 -176 149 0
56 -177 150 0
56 -178 151 0
56 -179 152 0
56 -166 -180 140 0
56 -166 -181 141 0
56 -166 -182 142 0
56 -166 -183 143 0
56 -166 -184 144 0
56 -166 -185 145 0
56 -166 -186 146 0
56 -166 -187 147 0
56 -166 -188 148 0
56 -166 -189 149 0
56 -166 -190 150 0
56 -166 -191 151 0
56 -166 -192 152 0
56 -167 -180 141 0
56 -167 -181 142 0
56 -167 -182 143 0
56 -167 -183 144 0
56 -167 -184 145 0
56 -167 -185 146 0
56 -167 -186 147 0
56 -167 -187 148 0
56 -167 -188 149 0
56 -167 -189 150 0
56 -167 -190 151 0
56 -167 -191 152 0
56 -167 -192 153 0
56 -168 -180 142 0
56 -168 -181 143 0
56 -168 -182 144 0
56 -168 -183 145 0
56 -168 -184 146 0
56 -168 -185 147 0
56 -168 -186 148 0
56 -168 -187 149 0
56 -168 -188 150 0
56 -168 -189 151 0
56 -168 -190 152 0
56 -168 -191 153 0
56 -168 -192 154 0
56 -169 -180 143 0
56 -169 -181 144 0
56 -169 -182 145 0
56 -169 -183 146 0
56 -169 -184 147 0
56 -169 -185 148 0
56 -169 -186 149 0
56 -169 -187 150 0
56 -169 -188 151 0
56 -169 -189 152 0
56 -169 -190 153 0
56 -169 -191 154 0
56 -169 -192 155 0
56 -170 -180 144 0
56 -170 -181 145 0
56 -170 -182 146 0
56 -170 -183 147 0
56 -170 -184 148 0
56 -170 -185 149 0
56 -170 -186 150 0
56 -170 -187 151 0
56 -170 -188 152 0
56 -170 -189 153 0
56 -170 -190 154 0
56 -170 -191 155 0
56 -170 -192 156 0
56 -171 -180 145 0
56 -171 -181 146 0
56 -171 -182 147 0
56 -171 -183 148 0
56 -171 -184 149 0
56 -171 -185 150 0
56 -171 -186 151 0
56 -171 -187 152 0
56 -171 -188 153 0
56 -171 -189 154 0
56 -171 -190 155 0
56 -171 -191 156 0
56 -171 -192 157 0
56 -172 -180 146 0
56 -172 -181 147 0
56 -172 -182 148 0
56 -172 -183 149 0
56 -172 -184 150 0
56 -172 -185 151 0
56 -172 -186 152 0
56 -172 -187 153 0
56 -172 -188 154 0
56 -172 -189 155 0
56 -172 -190 156 0
56 -172 -191 157 0
56 -172 -192 158 0
56 -173 -180 147 0
56 -173 -181 148 0
56 -173 -182 149 0
56 -173 -183 150 0
56 -173 -184 151 0
56 -173 -185 152 0
56 -173 -186 153 0
56 -173 -187 154 0
56 -173 -188 155 0
56 -173 -189 156 0
56 -173 -190 157 0
56 -173 -191 158 0
56 -173 -192 159 0
56 -174 -180 148 0
56 -174 -181 149 0
56 -174 -182 150 0
56 -174 -183 151 0
56 -174 -184 152 0
56 -174 -185 153 0
56 -174 -186 154 0
56 -174 -187 155 0
56 -174 -188 156 0
56 -174 -189 157 0
56 -174 -190 158 0
56 -174 -191 159 0
56 -174 -192 160 0
56 -175 -180 149 0
56 -175 -181 150 0
56 -175 -182 151 0
56 -175 -183 152 0
56 -175 -184 153 0
56 -175 -185 154 0
56 -175 -186 155 0
56 -175 -187 156 0
56 -175 -188 157 0
56 -175 -189 158 0
56 -175 -190 159 0
56 -175 -191 160 0
56 -175 -192 161 0
56 -176 -180 150 0
56 -176 -181 151 0
56 -176 -182 152 0
56 -176 -183 153 0
56 -176 -184 154 0
56 -176 -185 155 0
56 -176 -186 156 0
56 -176 -187 157 0
56 -176 -188 158 0
56 -176 -189 159 0
56 -176 -190 160 0
56 -176 -191 161 0
56 -176 -192 162 0
56 -177 -180 151 0
56 -177 -181 152 0
56 -177 -182 153 0
56 -177 -183 154 0
56 -177 -184 155 0
56 -177 -185 156 0
56 -177 -186 157 0
56 -177 -187 158 0
56 -177 -188 159 0
56 -177 -189 160 0
56 -177 -190 161 0
56 -177 -191 162 0
56 -177 -192 163 0
56 -178 -180 152 0
56 -178 -181 153 0
56 -178 -182 154 0
56 -178 -183 155 0
56 -178 -184 156 0
56 -178 -185 157 0
56 -178 -186 158 0
56 -178 -187 159 0
56 -178 -188 160 0
56 -178 -189 161 0
56 -178 -190 162 0
56 -178 -191 163 0
56 -178 -192 164 0
56 -179 -180 153 0
56 -179 -181 154 0
56 -179 -182 155 0
56 -179 -183 156 0
56 -179 -184 157 0
56 -179 -185 158 0
56 -179 -186 159 0
56 -179 -187 160 0
56 -179 -188 161 0
56 -179 -189 162 0
56 -179 -190 163 0
56 -179 -191 164 0
56 -179 -192 165 0
56 -200 180 0
56 -201 181 0
56 -202 182 0
56 -203 183 0
56 -204 184 0
56 -205 185 0
56 -193 180 0
56 -194 181 0
56 -195 182 0
56 -196 183 0
56 -197 184 0
56 -198 185 0
56 -199 186 0
56 -193 -200 181 0
56 -193 -201 182 0
56 -193 -202 183 0
56 -193 -203 184 0
56 -193 -204 185 0
56 -193 -205 186 0
56 -194 -200 182 0
56 -194 -201 183 0
56 -194 -202 184 0
56 -194 -203 185 0
56 -194 -204 186 0
56 -194 -205 187 0
56 -195 -200 183 0
56 -195 -201 184 0
56 -195 -202 185 0
56 -195 -203 186 0
56 -195 -204 187 0
56 -195 -205 188 0
56 -196 -200 184 0
56 -196 -201 185 0
56 -196 -202 186 0
56 -196 -203 187 0
56 -196 -204 188 0
56 -196 -205 189 0
56 -197 -200 185 0
56 -197 -201 186 0
56 -197 -202 187 0
56 -197 -203 188 0
56 -197 -204 189 0
56 -197 -205 190 0
56 -198 -200 186 0
56 -198 -201 187 0
56 -198 -202 188 0
56 -198 -203 189 0
56 -198 -204 190 0
56 -198 -205 191 0
56 -199 -200 187 0
56 -199 -201 188 0
56 -199 -202 189 0
56 -199 -203 190 0
56 -199 -204 191 0
56 -199 -205 192 0
56 -209 200 0
56 -210 201 0
56 -211 202 0
56 -206 200 0
56 -207 201 0
56 -208 202 0
56 -206 -209 201 0
56 -206 -210 202 0
56 -206 -211 203 0
56 -207 -209 202 0
56 -207 -210 203 0
56 -207 -211 204 0
56 -208 -209 203 0
56 -208 -210 204 0
56 -208 -211 205 0
56 -55 209 0
56 -212 209 0
56 -213 210 0
56 -212 -55 210 0
56 -213 -55 211 0
56 -54 212 0
56 -53 212 0
56 -53 -54 213 0
56 -52 206 0
56 -214 206 0
56 -215 207 0
56 -214 -52 207 0
56 -215 -52 208 0
56 -51 214 0
56 -50 214 0
56 -50 -51 215 0
56 -220 193 0
56 -221 194 0
56 -222 195 0
56 -216 193 0
56 -217 194 0
56 -218 195 0
56 -219 196 0
56 -216 -220 194 0
56 -216 -221 195 0
56 -216 -222 196 0
56 -217 -220 195 0
56 -217 -221 196 0
56 -217 -222 197 0
56 -218 -220 196 0
56 -218 -221 197 0
56 -218 -222 198 0
56 -219 -220 197 0
56 -219 -221 198 0
56 -219 -222 199 0
56 -49 220 0
56 -223 220 0
56 -224 221 0
56 -223 -49 221 0
56 -224 -49 222 0
56 -48 223 0
56 -47 223 0
56 -47 -48 224 0
56 -227 216 0
56 -228 217 0
56 -225 216 0
56 -226 217 0
56 -225 -227 217 0
56 -225 -228 218 0
56 -226 -227 218 0
56 -226 -228 219 0
56 -46 227 0
56 -45 227 0
56 -45 -46 228 0
56 -44 225 0
56 -43 225 0
56 -43 -44 226 0
56 -236 166 0
56 -237 167 0
56 -238 168 0
56 -239 169 0
56 -240 170 0
56 -241 171 0
56 -242 172 0
56 -229 166 0
56 -230 167 0
56 -231 168 0
56 -232 169 0
56 -233 170 0
56 -234 171 0
56 -235 172 0
56 -229 -236 167 0
56 -229 -237 168 0
56 -229 -238 169 0
56 -229 -239 170 0
56 -229 -240 171 0
56 -229 -241 172 0
56 -229 -242 173 0
56 -230 -236 168 0
56 -230 -237 169 0
56 -230 -238 170 0
56 -230 -239 171 0
56 -230 -240 172 0
56 -230 -241 173 0
56 -230 -242 174 0
56 -231 -236 169 0
56 -231 -237 170 0
56 -231 -238 171 0
56 -231 -239 172 0
56 -231 -240 173 0
56 -231 -241 174 0
56 -231 -242 175 0
56 -232 -236 170 0
56 -232 -237 171 0
56 -232 -238 172 0
56 -232 -239 173 0
56 -232 -240 174 0
56 -232 -241 175 0
56 -232 -242 176 0
56 -233 -236 171 0
56 -233 -237 172 0
56 -233 -238 173 0
56 -233 -239 174 0
56 -233 -240 175 0
56 -233 -241 176 0
56 -233 -242 177 0
56 -234 -236 172 0
56 -234 -237 173 0
56 -234 -238 174 0
56 -234 -239 175 0
56 -234 -240 176 0
56 -234 -241 177 0
56 -234 -242 178 0
56 -235 -236 173 0
56 -235 -237 174 0
56 -235 -238 175 0
56 -235 -239 176 0
56 -235 -240 177 0
56 -235 -241 178 0
56 -235 -242 179 0
56 -247 236 0
56 -248 237 0
56 -249 238 0
56 -243 236 0
56 -244 237 0
56 -245 238 0
56 -246 239 0
56 -243 -247 237 0
56 -243 -248 238 0
56 -243 -249 239 0
56 -244 -247 238 0
56 -244 -248 239 0
56 -244 -249 240 0
56 -245 -247 239 0
56 -245 -248 240 0
56 -245 -249 241 0
56 -246 -247 240 0
56 -246 -248 241 0
56 -246 -249 242 0
56 -42 247 0
56 -250 247 0
56 -251 248 0
56 -250 -42 248 0
56 -251 -42 249 0
56 -41 250 0
56 -40 250 0
56 -40 -41 251 0
56 -254 243 0
56 -255 244 0
56 -252 243 0
56 -253 244 0
56 -252 -254 244 0
56 -252 -255 245 0
56 -253 -254 245 0
56 -253 -255 246 0
56 -39 254 0
56 -38 254 0
56 -38 -39 255 0
56 -37 252 0
56 -36 252 0
56 -36 -37 253 0
56 -260 229 0
56 -261 230 0
56 -262 231 0
56 -256 229 0
56 -257 230 0
56 -258 231 0
56 -259 232 0
56 -256 -260 230 0
56 -256 -261 231 0
56 -256 -262 232 0
56 -257 -260 231 0
56 -257 -261 232 0
56 -257 -262 233 0
56 -258 -260 232 0
56 -258 -261 233 0
56 -258 -262 234 0
56 -259 -260 233 0
56 -259 -261 234 0
56 -259 -262 235 0
56 -35 260 0
56 -263 260 0
56 -264 261 0
56 -263 -35 261 0
56 -264 -35 262 0
56 -34 263 0
56 -33 263 0
56 -33 -34 264 0
56 -267 256 0
56 -268 257 0
56 -265 256 0
56 -266 257 0
56 -265 -267 257 0
56 -265 -268 258 0
56 -266 -267 258 0
56 -266 -268 259 0
56 -32 267 0
56 -31 267 0
56 -31 -32 268 0
56 -30 265 0
56 -29 265 0
56 -29 -30 266 0
56 -283 111 0
56 -284 112 0
56 -285 113 0
56 -286 114 0
56 -287 115 0
56 -288 116 0
56 -289 117 0
56 -290 118 0
56 -291 119 0
56 -292 120 0
56 -293 121 0
56 -294 122 0
56 -295 123 0
56 -296 124 0
56 -269 111 0
56 -270 112 0
56 -271 113 0
56 -272 114 0
56 -273 115 0
56 -274 116 0
56 -275 117 0
56 -276 118 0
56 -277 119 0
56 -278 120 0
56 -279 121 0
56 -280 122 0
56 -281 123 0
56 -282 124 0
56 -269 -283 112 0
56 -269 -284 113 0
56 -269 -285 114 0
56 -269 -286 115 0
56 -269 -287 116 0
56 -269 -288 117 0
56 -269 -289 118 0
56 -269 -290 119 0
56 -269 -291 120 0
56 -269 -292 121 0
56 -269 -293 122 0
56 -269 -294 123 0
56 -269 -295 124 0
56 -269 -296 125 0
56 -270 -283 113 0
56 -270 -284 114 0
56 -270 -285 115 0
56 -270 -286 116 0
56 -270 -287 117 0
56 -270 -288 118 0
56 -270 -289 119 0
56 -270 -290 120 0
56 -270 -291 121 0
56 -270 -292 122 0
56 -270 -293 123 0
56 -270 -294 124 0
56 -270 -295 125 0
56 -270 -296 126 0
56 -271 -283 114 0
56 -271 -284 115 0
56 -271 -285 116 0
56 -271 -286 117 0
56 -271 -287 118 0
56 -271 -288 119 0
56 -271 -289 120 0
56 -271 -290 121 0
56 -271 -291 122 0
56 -271 -292 123 0
56 -271 -293 124 0
56 -271 -294 125 0
56 -271 -295 126 0
56 -271 -296 127 0
56 -272 -283 115 0
56 -272 -284 116 0
56 -272 -285 117 0
56 -272 -286 118 0
56 -272 -287 119 0
56 -272 -288 120 0
56 -272 -289 121 0
56 -272 -290 122 0
56 -272 -291 123 0
56 -272 -292 124 0
56 -272 -293 125 0
56 -272 -294 126 0
56 -272 -295 127 0
56 -272 -296 128 0
56 -273 -283 116 0
56 -273 -284 117 0
56 -273 -285 118 0
56 -273 -286 119 0
56 -273 -287 120 0
56 -273 -288 121 0
56 -273 -289 122 0
56 -273 -290 123 0
56 -273 -291 124 0
56 -273 -292 125 0
56 -273 -293 126 0
56 -273 -294 127 0
56 -273 -295 128 0
56 -273 -296 129 0
56 -274 -283 117 0
56 -274 -284 118 0
56 -274 -285 119 0
56 -274 -286 120 0
56 -274 -287 121 0
56 -274 -288 122 0
56 -274 -289 123 0
56 -274 -290 124 0
56 -274 -291 125 0
56 -274 -292 126 0
56 -274 -293 127 0
56 -274 -294 128 0
56 -274 -295 129 0
56 -274 -296 130 0
56 -275 -283 118 0
56 -275 -284 119 0
56 -275 -285 120 0
56 -275 -286 121 0
56 -275 -287 122 0
56 -275 -288 123 0
56 -275 -289 124 0
56 -275 -290 125 0
56 -275 -291 126 0
56 -275 -292 127 0
56 -275 -293 128 0
56 -275 -294 129 0
56 -275 -295 130 0
56 -275 -296 131 0
56 -276 -283 119 0
56 -276 -284 120 0
56 -276 -285 121 0
56 -276 -286 122 0
56 -276 -287 123 0
56 -276 -288 124 0
56 -276 -289 125 0
56 -276 -290 126 0
56 -276 -291 127 0
56 -276 -292 128 0
56 -276 -293 129 0
56 -276 -294 130 0
56 -276 -295 131 0
56 -276 -296 132 0
56 -277 -283 120 0
56 -277 -284 121 0
56 -277 -285 122 0
56 -277 -286 123 0
56 -277 -287 124 0
56 -277 -288 125 0
56 -277 -289 126 0
56 -277 -290 127 0
56 -277 -291 128 0
56 -277 -292 129 0
56 -277 -293 130 0
56 -277 -294 131 0
56 -277 -295 132 0
56 -277 -296 133 0
56 -278 -283 121 0
56 -278 -284 122 0
56 -278 -285 123 0
56 -278 -286 124 0
56 -278 -287 125 0
56 -278 -288 126 0
56 -278 -289 127 0
56 -278 -290 128 0
56 -278 -291 129 0
56 -278 -292 130 0
56 -278 -293 131 0
56 -278 -294 132 0
56 -278 -295 133 0
56 -278 -296 134 0
56 -279 -283 122 0
56 -279 -284 123 0
56 -279 -285 124 0
56 -279 -286 125 0
56 -279 -287 126 0
56 -279 -288 127 0
56 -279 -289 128 0
56 -279 -290 129 0
56 -279 -291 130 0
56 -279 -292 131 0
56 -279 -293 132 0
56 -279 -294 133 0
56 -279 -295 134 0
56 -279 -296 135 0
56 -280 -283 123 0
56 -280 -284 124 0
56 -280 -285 125 0
56 -280 -286 126 0
56 -280 -287 127 0
56 -280 -288 128 0
56 -280 -289 129 0
56 -280 -290 130 0
56 -280 -291 131 0
56 -280 -292 132 0
56 -280 -293 133 0
56 -280 -294 134 0
56 -280 -295 135 0
56 -280 -296 136 0
56 -281 -283 124 0
56 -281 -284 125 0
56 -281 -285 126 0
56 -281 -286 127 0
56 -281 -287 128 0
56 -281 -288 129 0
56 -281 -289 130 0
56 -281 -290 131 0
56 -281 -291 132 0
56 -281 -292 133 0
56 -281 -293 134 0
56 -281 -294 135 0
56 -281 -295 136 0
56 -281 -296 137 0
56 -282 -283 125 0
56 -282 -284 126 0
56 -282 -285 127 0
56 -282 -286 128 0
56 -282 -287 129 0
56 -282 -288 130 0
56 -282 -289 131 0
56 -282 -290 132 0
56 -282 -291 133 0
56 -282 -292 134 0
56 -282 -293 135 0
56 -282 -294 136 0
56 -282 -295 137 0
56 -282 -296 138 0
56 -304 283 0
56 -305 284 0
56 -306 285 0
56 -307 286 0
56 -308 287 0
56 -309 288 0
56 -310 289 0
56 -297 283 0
56 -298 284 0
56 -299 285 0
56 -300 286 0
56 -301 287 0
56 -302 288 0
56 -303 289 0
56 -297 -304 284 0
56 -297 -305 285 0
56 -297 -306 286 0
56 -297 -307 287 0
56 -297 -308 288 0
56 -297 -309 289 0
56 -297 -310 290 0
56 -298 -304 285 0
56 -298 -305 286 0
56 -298 -306 287 0
56 -298 -307 288 0
56 -298 -308 289 0
56 -298 -309 290 0
56 -298 -310 291 0
56 -299 -304 286 0
56 -299 -305 287 0
56 -299 -306 288 0
56 -299 -307 289 0
56 -299 -308 290 0
56 -299 -309 291 0
56 -299 -310 292 0
56 -300 -304 287 0
56 -300 -305 288 0
56 -300 -306 289 0
56 -300 -307 290 0
56 -300 -308 291 0
56 -300 -309 292 0
56 -300 -310 293 0
56 -301 -304 288 0
56 -301 -305 289 0
56 -301 -306 290 0
56 -301 -307 291 0
56 -301 -308 292 0
56 -301 -309 293 0
56 -301 -310 294 0
56 -302 -304 289 0
56 -302 -305 290 0
56 -302 -306 291 0
56 -302 -307 292 0
56 -302 -308 293 0
56 -302 -309 294 0
56 -302 -310 295 0
56 -303 -304 290 0
56 -303 -305 291 0
56 -303 -306 292 0
56 -303 -307 293 0
56 -303 -308 294 0
56 -303 -309 295 0
56 -303 -310 296 0
56 -315 304 0
56 -316 305 0
56 -317 306 0
56 -311 304 0
56 -312 305 0
56 -313 306 0
56 -314 307 0
56 -311 -315 305 0
56 -311 -316 306 0
56 -311 -317 307 0
56 -312 -315 306 0
56 -312 -316 307 0
56 -312 -317 308 0
56 -313 -315 307 0
56 -313 -316 308 0
56 -313 -317 309 0
56 -314 -315 308 0
56 -314 -316 309 0
56 -314 -317 310 0
56 -28 315 0
56 -318 315 0
56 -319 316 0
56 -318 -28 316 0
56 -319 -28 317 0
56 -27 318 0
56 -26 318 0
56 -26 -27 319 0
56 -322 311 0
56 -323 312 0
56 -320 311 0
56 -321 312 0
56 -320 -322 312 0
56 -320 -323 313 0
56 -321 -322 313 0
56 -321 -323 314 0
56 -25 322 0
56 -24 322 0
56 -24 -25 323 0
56 -23 320 0
56 -22 320 0
56 -22 -23 321 0
56 -328 297 0
56 -329 298 0
56 -330 299 0
56 -324 297 0
56 -325 298 0
56 -326 299 0
56 -327 300 0
56 -324 -328 298 0
56 -324 -329 299 0
56 -324 -330 300 0
56 -325 -328 299 0
56 -325 -329 300 0
56 -325 -330 301 0
56 -326 -328 300 0
56 -326 -329 301 0
56 -326 -330 302 0
56 -327 -328 301 0
56 -327 -329 302 0
56 -327 -330 303 0
56 -21 328 0
56 -331 328 0
56 -332 329 0
56 -331 -21 329 0
56 -332 -21 330 0
56 -20 331 0
56 -19 331 0
56 -19 -20 332 0
56 -335 324 0
56 -336 325 0
56 -333 324 0
56 -334 325 0
56 -333 -335 325 0
56 -333 -336 326 0
56 -334 -335 326 0
56 -334 -336 327 0
56 -18 335 0
56 -17 335 0
56 -17 -18 336 0
56 -16 333 0
56 -15 333 0
56 -15 -16 334 0
56 -344 269 0
56 -345 270 0
56 -346 271 0
56 -347 272 0
56 -348 273 0
56 -349 274 0
56 -350 275 0
56 -337 269 0
56 -338 270 0
56 -339 271 0
56 -340 272 0
56 -341 273 0
56 -342 274 0
56 -343 275 0
56 -337 -344 270 0
56 -337 -345 271 0
56 -337 -346 272 0
56 -337 -347 273 0
56 -337 -348 274 0
56 -337 -349 275 0
56 -337 -350 276 0
56 -338 -344 271 0
56 -338 -345 272 0
56 -338 -346 273 0
56 -338 -347 274 0
56 -338 -348 275 0
56 -338 -349 276 0
56 -338 -350 277 0
56 -339 -344 272 0
56 -339 -345 273 0
56 -339 -346 274 0
56 -339 -347 275 0
56 -339 -348 276 0
56 -339 -349 277 0
56 -339 -350 278 0
56 -340 -344 273 0
56 -340 -345 274 0
56 -340 -346 275 0
56 -340 -347 276 0
56 -340 -348 277 0
56 -340 -349 278 0
56 -340 -350 279 0
56 -341 -344 274 0
56 -341 -345 275 0
56 -341 -346 276 0
56 -341 -347 277 0
56 -341 -348 278 0
56 -341 -349 279 0
56 -341 -350 280 0
56 -342 -344 275 0
56 -342 -345 276 0
56 -342 -346 277 0
56 -342 -347 278 0
56 -342 -348 279 0
56 -342 -349 280 0
56 -342 -350 281 0
56 -343 -344 276 0
56 -343 -345 277 0
56 -343 -346 278 0
56 -343 -347 279 0
56 -343 -348 280 0
56 -343 -349 281 0
56 -343 -350 282 0
56 -355 344 0
56 -356 345 0
56 -357 346 0
56 -351 344 0
56 -352 345 0
56 -353 346 0
56 -354 347 0
56 -351 -355 345 0
56 -351 -356 346 0
56 -351 -357 347 0
56 -352 -355 346 0
56 -352 -356 347 0
56 -352 -357 348 0
56 -353 -355 347 0
56 -353 -356 348 0
56 -353 -357 349 0
56 -354 -355 348 0
56 -354 -356 349 0
56 -354 -357 350 0
56 -14 355 0
56 -358 355 0
56 -359 356 0
56 -358 -14 356 0
56 -359 -14 357 0
56 -13 358 0
56 -12 358 0
56 -12 -13 359 0
56 -362 351 0
56 -363 352 0
56 -360 351 0
56 -361 352 0
56 -360 -362 352 0
56 -360 -363 353 0
56 -361 -362 353 0
56 -361 -363 354 0
56 -11 362 0
56 -10 362 0
56 -10 -11 363 0
56 -9 360 0
56 -8 360 0
56 -8 -9 361 0
56 -368 337 0
56 -369 338 0
56 -370 339 0
56 -364 337 0
56 -365 338 0
56 -366 339 0
56 -367 340 0
56 -364 -368 338 0
56 -364 -369 339 0
56 -364 -370 340 0
56 -365 -368 339 0
56 -365 -369 340 0
56 -365 -370 341 0
56 -366 -368 340 0
56 -366 -369 341 0
56 -366 -370 342 0
56 -367 -368 341 0
56 -367 -369 342 0
56 -367 -370 343 0
56 -7 368 0
56 -371 368 0
56 -372 369 0
56 -371 -7 369 0
56 -372 -7 370 0
56 -6 371 0
56 -5 371 0
56 -5 -6 372 0
56 -375 364 0
56 -376 365 0
56 -373 364 0
56 -374 365 0
56 -373 -375 365 0
56 -373 -376 366 0
56 -374 -375 366 0
56 -374 -376 367 0
56 -4 375 0
56 -3 375 0
56 -3 -4 376 0
56 -2 373 0
56 -1 373 0
56 -1 -2 374 0
56 -80 0
